(declare-fun a () (Array Int Int))
(declare-fun c () Int)
(declare-fun d () Int)
(declare-fun aa () Int)
(declare-fun b () Int)
(declare-fun f () Int)
(declare-fun ab () Int)
(declare-fun g () Int)
(declare-fun h () Int)
(declare-fun e () Int)
(declare-fun j () Int)
(declare-fun k () Int)
(declare-fun l () Int)
(declare-fun m () Int)
(declare-fun i () Int)
(declare-fun o () Int)
(declare-fun p () Int)
(declare-fun q () Int)
(declare-fun r () Int)
(declare-fun n () Int)
(declare-fun t () Int)
(declare-fun u () Int)
(declare-fun v () Int)
(declare-fun w () Int)
(declare-fun s () Int)
(declare-fun y () Int)
(declare-fun z () Int)
(declare-fun ac () Int)
(declare-fun ad () Int)
(declare-fun ae () Int)
(declare-fun af () Int)
(declare-fun ag () Int)
(declare-fun ah () Int)
(declare-fun ai () Int)
(declare-fun aj () Int)
(declare-fun ak () Int)
(declare-fun al () Int)
(declare-fun am () Int)
(declare-fun an () Int)
(declare-fun ao () Int)
(declare-fun ap () Int)
(declare-fun aq () Int)
(declare-fun ar () Int)
(declare-fun i21 () Int)
(declare-fun i22 () Int)
(declare-fun x () Int)
(declare-fun av () Int)
(declare-fun i25 () Int)
(declare-fun aw () Int)
(declare-fun ax () Int)
(declare-fun ay () Int)
(declare-fun az () Int)
(declare-fun ba () Int)
(declare-fun bb () Int)
(declare-fun bc () Int)
(declare-fun i5 () Int)
(declare-fun bd () Int)
(declare-fun be () Int)
(declare-fun bf () Int)
(declare-fun bg () Int)
(declare-fun bh ((Array Int Int) (Array Int Int)) Int)
(assert (not (= ay az)))
(assert (not (= ax az)))
(assert (not (= ax ay)))
(assert (not (= aw az)))
(assert (not (= x av)))
(assert (not (= ar av)))
(assert (not (= ar i22)))
(assert (not (= ap av)))
(assert (not (= ap i22)))
(assert (not (= ap ar)))
(assert (not (= ao av)))
(assert (not (= ao i22)))
(assert (not (= ao ar)))
(assert (not (= an i25)))
(assert (not (= an av)))
(assert (not (= an x)))
(assert (not (= an i22)))
(assert (not (= an ar)))
(assert (not (= an ap)))
(assert (not (= an ao)))
(assert (not (= am az)))
(assert (not (= am ay)))
(assert (not (= am aw)))
(assert (not (= am i25)))
(assert (not (= am av)))
(assert (not (= am x)))
(assert (not (= am i22)))
(assert (not (= am ar)))
(assert (not (= am ap)))
(assert (not (= am ao)))
(assert (not (= am an)))
(assert (not (= al av)))
(assert (not (= al i22)))
(assert (not (= al ar)))
(assert (not (= aj av)))
(assert (not (= aj i22)))
(assert (not (= aj ar)))
(assert (not (= aj al)))
(assert (not (= aj ak)))
(assert (not (= ai az)))
(assert (not (= ai i25)))
(assert (not (= ai av)))
(assert (not (= ai x)))
(assert (not (= ai i22)))
(assert (not (= ai ar)))
(assert (not (= ai ap)))
(assert (not (= ai ao)))
(assert (not (= ai an)))
(assert (not (= ai al)))
(assert (not (= ai ak)))
(assert (not (= ai aj)))
(assert (not (= ah ak)))
(assert (not (= ag ak)))
(assert (not (= bg az)))
(assert (not (= bg ay)))
(assert (not (= bg aw)))
(assert (not (= bg i25)))
(assert (not (= bg av)))
(assert (not (= bg x)))
(assert (not (= bg i22)))
(assert (not (= bg ar)))
(assert (not (= bg ap)))
(assert (not (= bg ao)))
(assert (not (= bg an)))
(assert (not (= bg al)))
(assert (not (= bg ak)))
(assert (not (= bg aj)))
(assert (not (= bg ai)))
(assert (not (= bg ah)))
(assert (not (= bg ag)))
(assert (not (= bf av)))
(assert (not (= bf i22)))
(assert (not (= bf ar)))
(assert (not (= bf al)))
(assert (not (= bf ak)))
(assert (not (= bf ah)))
(assert (not (= bf ag)))
(assert (not (= be az)))
(assert (not (= be ay)))
(assert (not (= be aw)))
(assert (not (= be i25)))
(assert (not (= be av)))
(assert (not (= be x)))
(assert (not (= be i22)))
(assert (not (= be ar)))
(assert (not (= be ap)))
(assert (not (= be ao)))
(assert (not (= be an)))
(assert (not (= be al)))
(assert (not (= be ak)))
(assert (not (= be aj)))
(assert (not (= be ai)))
(assert (not (= be ah)))
(assert (not (= be ag)))
(assert (not (= be bg)))
(assert (not (= be bf)))
(assert (not (= bd av)))
(assert (not (= bd i22)))
(assert (not (= bd ar)))
(assert (not (= bd ao)))
(assert (not (= bd al)))
(assert (not (= bd ak)))
(assert (not (= bd aj)))
(assert (not (= bd ah)))
(assert (not (= bd ag)))
(assert (not (= bd bf)))
(assert (not (= i5 av)))
(assert (not (= i5 i22)))
(assert (not (= i5 ar)))
(assert (not (= i5 ap)))
(assert (not (= i5 ao)))
(assert (not (= i5 al)))
(assert (not (= i5 ak)))
(assert (not (= i5 aj)))
(assert (not (= i5 ah)))
(assert (not (= i5 ag)))
(assert (not (= i5 bf)))
(assert (not (= i5 bd)))
(assert (not (= bc ak)))
(assert (not (= bc ah)))
(assert (not (= bc ag)))
(assert (not (= ba az)))
(assert (not (= ba ay)))
(assert (not (= ba aw)))
(assert (not (= ba i25)))
(assert (not (= ba av)))
(assert (not (= ba x)))
(assert (not (= ba i22)))
(assert (not (= ba ar)))
(assert (not (= ba ap)))
(assert (not (= ba ao)))
(assert (not (= ba an)))
(assert (not (= ba al)))
(assert (not (= ba ak)))
(assert (not (= ba aj)))
(assert (not (= ba ai)))
(assert (not (= ba ah)))
(assert (not (= ba ag)))
(assert (not (= ba bg)))
(assert (not (= ba bf)))
(assert (not (= ba be)))
(assert (not (= ba bd)))
(assert (not (= ba i5)))
(assert (not (= ba bc)))
(assert (not (= aq av)))
(assert (not (= aq i22)))
(assert (not (= aq ar)))
(assert (not (= aq ak)))
(assert (not (= aq ah)))
(assert (not (= aq ag)))
(assert (not (= aq bc)))
(assert (not (= af az)))
(assert (not (= af ay)))
(assert (not (= af aw)))
(assert (not (= af i25)))
(assert (not (= af av)))
(assert (not (= af x)))
(assert (not (= af i22)))
(assert (and (= af i21)))
(assert (not (= af am)))
(assert (let ((qas (store (store (store (store (store (store (store (store (store (store (store (store (store (store (store (store (store (store (store (store (store (store (store (store (store (store (store (store (store (store a af 1) aq k) ba v) bc s) i5 y) bd z) be ac) bf ad) bg ae) ag c) ah d) ai aa) aj b) ak f) al ab) am g) an h) ao e) ap j) ar l) i21 m) i22 i) x o) av p) i25 q) aw r) ax n) ay t) az u) bb w))(qat (store (store (store (store (store (store (store (store (store (store (store (store (store (store (store (store (store (store (store (store (store (store (store (store (store (store (store (store (store (store a ak f) af 1) ag c) ah d) bc s) i22 i) av p) ar l) aq k) al ab) bf ad) aj b) ao e) bd z) ap j) i5 y) x o) i25 q) an h) az u) ai aa) aw r) ay t) bg ae) be ac) ba v) i21 m) am g) ax n) bb w))) (let ((qau (bh qas qat))) (not (= (qas qau) (qat qau))))))
(check-sat)
